(declare-fun b_ack!643 () (_ BitVec 64))
(declare-fun a_ack!645 () (_ BitVec 32))
(declare-fun c_ack!644 () (_ BitVec 64))
(assert (not (fp.leq ((_ to_fp 11 53) b_ack!643) ((_ to_fp 11 53) #xbfe0000000000000))))
(assert (not (bvslt a_ack!645 #x00000000)))
(assert (not (= #x00000000 a_ack!645)))
(assert (not (= #x00000001 a_ack!645)))
(assert (not (= #x00000002 a_ack!645)))
(assert (not (= #x00000003 a_ack!645)))
(assert (fp.eq ((_ to_fp 11 53) b_ack!643) ((_ to_fp 11 53) #x0000000000000000)))
(assert (fp.geq ((_ to_fp 11 53) c_ack!644) ((_ to_fp 11 53) #xbff0000000000000)))
(assert (not (fp.leq ((_ to_fp 11 53) c_ack!644) ((_ to_fp 11 53) #x3ff0000000000000))))
(assert (fp.eq ((_ to_fp 11 53) b_ack!643) ((_ to_fp 11 53) #x0000000000000000)))
(assert (fp.eq ((_ to_fp 11 53) b_ack!643) ((_ to_fp 11 53) #x0000000000000000)))

(check-sat)
(exit)
